p tw 200 415
1 48
1 49
1 138
1 158
1 159
1 170
1 198
1 199
2 58
2 59
2 126
2 127
3 59
3 60
3 68
3 69
3 118
3 119
3 129
3 130
3 161
3 162
4 150
4 151
4 187
5 96
5 110
5 128
6 68
6 111
6 112
6 124
6 129
6 161
6 188
7 43
7 66
7 67
8 89
8 90
8 186
8 187
9 18
9 116
9 138
9 139
10 143
10 144
10 176
10 177
11 60
11 61
11 77
11 78
11 102
11 103
11 119
11 120
12 95
12 96
12 109
12 110
12 152
12 153
13 63
13 64
13 79
13 80
13 122
13 123
14 94
14 95
14 107
14 108
15 50
15 51
15 97
15 98
16 40
16 53
16 54
16 88
16 89
16 98
16 99
16 149
16 150
16 184
16 185
16 196
16 197
17 61
17 62
17 86
17 87
17 103
17 104
17 113
17 114
17 120
17 121
17 146
17 147
17 180
17 181
17 190
17 191
18 22
18 37
18 43
18 49
18 67
18 81
18 82
18 104
18 116
18 123
18 139
18 140
18 160
18 171
18 172
18 199
18 200
19 57
19 58
19 84
19 101
19 102
19 112
19 113
19 117
19 118
19 141
19 142
19 174
19 175
19 188
19 189
20 57
20 101
20 111
20 154
21 91
21 92
21 105
21 106
22 31
22 49
22 140
22 160
22 200
23 64
23 65
23 114
23 115
24 148
24 149
24 183
24 184
24 195
24 196
25 45
25 46
25 72
25 73
25 132
25 133
25 156
25 157
25 191
25 192
26 93
26 94
26 108
26 109
27 70
27 71
27 163
27 164
28 46
28 47
28 157
28 158
29 44
29 77
29 154
29 155
30 44
30 45
30 142
30 143
30 153
30 155
30 156
30 173
30 174
30 189
30 190
31 33
31 200
32 75
32 76
32 136
32 137
32 168
32 169
32 194
32 195
33 47
33 48
33 159
33 160
33 198
34 115
34 116
34 165
34 166
35 84
35 85
35 179
35 180
36 73
36 74
36 166
36 167
37 74
37 123
37 134
37 135
37 167
37 192
37 193
38 92
38 93
38 106
38 107
38 127
38 128
38 145
38 146
38 178
38 179
39 82
39 83
39 170
39 171
40 55
40 56
40 90
40 99
40 100
41 124
41 125
41 141
41 175
41 176
42 51
42 52
42 87
42 88
42 182
42 183
43 62
43 63
43 71
43 72
43 104
43 121
43 122
43 131
43 132
43 164
43 165
44 45
45 46
46 47
47 48
48 49
50 51
50 97
51 52
52 53
53 54
54 55
55 56
56 100
57 58
58 59
59 60
60 61
61 62
62 63
63 64
64 65
65 66
66 67
68 69
69 70
70 71
71 72
72 73
73 74
75 76
75 168
76 169
77 78
78 79
79 80
80 81
81 82
82 83
83 172
84 85
85 86
86 87
87 88
88 89
89 90
91 92
91 105
92 93
93 94
94 95
95 96
97 98
98 99
99 100
101 102
102 103
103 104
105 106
106 107
107 108
108 109
109 110
111 112
112 113
113 114
114 115
115 116
117 118
117 173
118 119
119 120
120 121
121 122
122 123
124 125
125 126
126 127
127 128
129 130
130 131
131 132
132 133
133 134
134 135
135 136
136 137
137 197
138 139
139 140
141 142
142 143
143 144
144 145
145 146
146 147
147 148
148 149
149 150
150 151
151 152
152 153
154 155
155 156
156 157
157 158
158 159
159 160
161 162
162 163
163 164
164 165
165 166
166 167
168 169
170 171
171 172
173 174
174 175
175 176
176 177
177 178
178 179
179 180
180 181
181 182
182 183
183 184
184 185
185 186
186 187
188 189
189 190
190 191
191 192
192 193
193 194
194 195
195 196
196 197
198 199
199 200
